solution status: optimal solution found
objective value:                                    0
bank.push_flush_hole_y                            -24 	(obj:0)
bank.push_flush_hole_z                            -23 	(obj:0)
bank.thing.devices[0].thingy.vbead_out_y                  -24 	(obj:0)
bank.thing.devices[0].thingy.vbead_out_z                  -21 	(obj:0)
bank.push_ctrl_hole_y                             -23 	(obj:0)
bank.push_ctrl_hole_z                             -25 	(obj:0)
bank.cells_in_flush_hole_y                        -25 	(obj:0)
bank.cells_in_flush_hole_z                        -23 	(obj:0)
bank.lysis_in_flush_hole_y                        -25 	(obj:0)
bank.lysis_in_flush_hole_z                        -21 	(obj:0)
bank.thing.devices[0].thingy.vpump3_y                  -25 	(obj:0)
bank.thing.devices[0].thingy.vpump3_z                  -22 	(obj:0)
bank.beads_ctrl_hole_y                            -24 	(obj:0)
bank.beads_ctrl_hole_z                            -20 	(obj:0)
bank.cells_in_ctrl_hole_y                         -23 	(obj:0)
bank.cells_in_ctrl_hole_z                         -23 	(obj:0)
bank.thing.devices[0].thingy.vpump1_y                  -24 	(obj:0)
bank.thing.devices[0].thingy.vpump1_z                  -24 	(obj:0)
bank.thing.devices[0].thingy.vpump2_y                  -25 	(obj:0)
bank.thing.devices[0].thingy.vpump2_z                  -24 	(obj:0)
bank.lysis_in_ctrl_hole_y                         -22 	(obj:0)
bank.lysis_in_ctrl_hole_z                         -22 	(obj:0)
bank.thing.devices[0].thingy.vsieve_y                  -24 	(obj:0)
bank.thing.devices[0].thingy.vsieve_z                  -22 	(obj:0)
bank.beads_flush_hole_y                           -23 	(obj:0)
bank.beads_flush_hole_z                           -20 	(obj:0)
bank.thing.devices[0].thingy.vsep_y                  -23 	(obj:0)
bank.thing.devices[0].thingy.vsep_z                  -22 	(obj:0)
bank.thing.devices[0].thingy.vcell_out_y                  -25 	(obj:0)
bank.thing.devices[0].thingy.vcell_out_z                  -25 	(obj:0)
